NAME lp_typeD_756
OBJSENSE MAX
ROWS
 N  OBJ
 L  c0      
 G  c1      
 G  c2      
 L  c_key_upper
 G  c_key_lower
 G  _chain_constr_1
 G  _chain_constr_2
 G  _chain_constr_3
 G  _chain_cycle
COLUMNS
    x0        OBJ       1.2804975920575086e+00
    x0        c0        1.9790651836083708e+00
    x0        c1        8.5106372146596287e-01
    x0        c2        6.3681254651910679e-01
    x0        c_key_upper  1.0807955632376722e+00
    x0        c_key_lower  1.0807955632376722e+00
    x1        OBJ       8.0569435581742843e-01
    x1        c0        1.0559207827569439e+00
    x1        c1        7.6889048025969031e-01
    x1        c2        1.0622742120466586e+00
    x1        c_key_upper  1.9963115241709177e+00
    x1        c_key_lower  1.9963115241709177e+00
    x2        OBJ       1.0439434714781877e+00
    x2        c0        1.7862076528103252e+00
    x2        c1        1.9923056318231476e+00
    x2        c2        1.5338082933419463e+00
    x2        c_key_upper  1.9044120624658016e+00
    x2        c_key_lower  1.9044120624658016e+00
    x3        OBJ       1.0072264898241006e+00
    x3        c0        1.49787296248221
    x3        c1        1.6660203597738812e+00
    x3        c2        1.3877400162542979e+00
    x3        c_key_upper  1.0241771972679148e+00
    x3        c_key_lower  1.0241771972679148e+00
    x4        OBJ       8.4864353664491410e-01
    x4        c0        1.9668246458243259e+00
    x4        c1        1.1530258534372950e+00
    x4        c2        1.7374487472057323e+00
    x4        c_key_upper  1.7440870840288767e+00
    x4        c_key_lower  1.7440870840288767e+00
    x5        OBJ       1.1857050288913213e+00
    x5        c0        1.1794288630695120e+00
    x5        c1        1.5756744826654485e+00
    x5        c2        1.6285777554742442e+00
    x5        c_key_upper  1.82463711222122
    x5        c_key_lower  1.82463711222122
    x6        OBJ       1.0234413371047497e+00
    x6        c0        1.2692940790997529e+00
    x6        c1        1.7132345983013693e+00
    x6        c2        1.2593886291779455e+00
    x6        c_key_upper  1.7939138288521350e+00
    x6        c_key_lower  1.7939138288521350e+00
    x7        OBJ       1.44754376591068
    x7        c0        1.0537761523673417e+00
    x7        c1        1.4906407942045874e+00
    x7        c2        1.4216864649982879e+00
    x7        c_key_upper  1.9301029116268187e+00
    x7        c_key_lower  1.9301029116268187e+00
    x8        OBJ       1.3598343804609336e+00
    x8        c0        1.1995629657317424e+00
    x8        c1        1.2406257395967253e+00
    x8        c2        1.0626585797588368e+00
    x8        c_key_upper  1.8360241106471658e+00
    x8        c_key_lower  1.8360241106471658e+00
    x9        OBJ       1.1387051544576334e+00
    x9        c0        1.5642868609072018e+00
    x9        c1        8.0063542591339920e-01
    x9        c2        9.7295035905401606e-01
    x9        c_key_upper  1.1980313432458112e+00
    x9        c_key_lower  1.1980313432458112e+00
    _chain_var_0  _chain_constr_1  -1
    _chain_var_0  _chain_cycle  1
    _chain_var_1  _chain_constr_1  1
    _chain_var_1  _chain_constr_2  -1
    _chain_var_2  _chain_constr_2  1
    _chain_var_2  _chain_constr_3  -1
    _chain_var_3  _chain_constr_3  1
    _chain_var_3  _chain_cycle  -1
RHS
    RHS1      c0        6.0505420206355190e+01
    RHS1      c1        2.2504536144058470e+01
    RHS1      c2        1.8036362031555011e+01
    RHS1      c_key_upper  8.1662463688821660e+01
    RHS1      c_key_lower  4.0831231844410830e+01
    RHS1      _chain_constr_1  10
    RHS1      _chain_constr_2  10
    RHS1      _chain_constr_3  10
    RHS1      _chain_cycle  10
BOUNDS
 UP BND1      x0        10
 UP BND1      x1        10
 UP BND1      x2        10
 UP BND1      x3        10
 UP BND1      x4        10
 UP BND1      x5        10
 UP BND1      x6        10
 UP BND1      x7        10
 UP BND1      x8        10
 UP BND1      x9        10
 UP BND1      _chain_var_0  100
 UP BND1      _chain_var_1  100
 UP BND1      _chain_var_2  100
 UP BND1      _chain_var_3  100
ENDATA
